objective value:                                   -3
t_n_11                                              1 	(obj:-1)
t_n_933                                             1 	(obj:-1)
t_n_957                                             1 	(obj:-1)
